
Gurobi 9.1.1 (mac64, gurobi_cl) logging started Sun Feb 21 16:39:44 2021

Academic license - for non-commercial use only - expires 2021-04-06
Using license file /Users/agnese/gurobi.lic
Set parameter LogFile to value gurobi.log

Gurobi Optimizer version 9.1.1 build v9.1.1rc0 (mac64)
Copyright (c) 2020, Gurobi Optimization, LLC

Read LP format model from file /Users/agnese/Documents/KTH-Work/GitHub_repositories/KTH-dESA/GLUCOSE/results/2Degree2060/GLUCOSE_2Degree2060+Material+TotMAxCapInvNGBRFN1.lp
Reading time = 0.47 seconds
cost: 55289 rows, 45900 columns, 520298 nonzeros
Thread count: 2 physical cores, 4 logical processors, using up to 4 threads
Optimize a model with 55289 rows, 45900 columns and 520298 nonzeros
Model fingerprint: 0x8ffb0649
Coefficient statistics:
  Matrix range     [2e-08, 6e+03]
  Objective range  [7e-08, 4e+11]
  Bounds range     [0e+00, 0e+00]
  RHS range        [1e-03, 1e+06]
Warning: Model contains large objective coefficients
         Consider reformulating model or setting NumericFocus parameter
         to avoid numerical issues.

Concurrent LP optimizer: dual simplex and barrier
Showing barrier log only...

Presolve removed 29812 rows and 27980 columns
Presolve time: 0.20s
Presolved: 25477 rows, 18042 columns, 355711 nonzeros

Ordering time: 1.39s

Barrier statistics:
 AA' NZ     : 1.302e+06
 Factor NZ  : 8.985e+06 (roughly 90 MBytes of memory)
 Factor Ops : 8.613e+09 (less than 1 second per iteration)
 Threads    : 1

                  Objective                Residual
Iter       Primal          Dual         Primal    Dual     Compl     Time
   0   5.03238309e+20 -3.34006636e+17  9.31e+08 2.08e+12  3.46e+16     3s
   1   2.66860272e+20 -4.79449071e+17  9.16e+08 1.98e+12  3.38e+16     3s
   2   3.80898106e+20 -1.42963259e+18  8.48e+08 1.39e+12  3.34e+16     4s
   3   1.56758617e+20 -3.67753753e+18  2.38e+08 3.97e+11  1.35e+16     5s
   4   3.91618161e+19 -3.72669375e+18  5.81e+07 3.41e+10  3.78e+15     5s
   5   7.93441695e+18 -2.93624531e+18  1.18e+07 3.66e+09  8.00e+14     6s
   6   1.40112015e+18 -1.75507906e+18  2.11e+06 4.97e+08  1.64e+14     7s
   7   1.22689166e+18 -1.49249863e+18  1.85e+06 3.95e+08  1.41e+14     7s
   8   7.13606761e+17 -1.05983042e+18  1.07e+06 2.04e+08  8.33e+13     8s
   9   1.87800276e+17 -7.32864484e+17  2.79e+05 1.18e+08  3.09e+13     9s
  10   5.67598984e+16 -1.12704917e+17  8.39e+04 8.40e+06  6.76e+12    10s
  11   1.85365714e+16 -5.37162032e+16  2.72e+04 3.36e+06  2.53e+12    10s
  12   4.69925828e+15 -1.41358895e+16  6.75e+03 5.71e+05  6.46e+11    11s
  13   1.23156402e+15 -4.99257850e+15  1.70e+03 1.57e+05  1.90e+11    12s
  14   7.28845395e+14 -2.86440747e+15  1.04e+03 8.41e+04  1.12e+11    13s
  15   8.64307063e+13 -4.79502755e+14  7.42e+01 3.46e+03  1.44e+10    13s
  16   2.14774676e+13 -1.46229336e+14  3.96e+00 6.48e+02  3.92e+09    14s
  17   1.19978358e+12 -1.70643782e+13  1.84e-01 1.57e+01  3.87e+08    15s
  18   4.39278232e+10 -8.88774565e+11  2.80e-08 3.72e-01  1.94e+07    16s
  19   1.05266089e+10 -9.98041463e+10  1.02e-08 2.83e-02  2.29e+06    17s
  20   3.97005319e+09 -1.48113256e+10  4.58e-09 3.17e-03  3.90e+05    18s
  21   2.09693474e+09  1.76994402e+07  2.94e-09 2.44e-04  4.32e+04    19s
  22   1.51728407e+09  1.19271866e+09  3.60e-08 4.88e-04  6.74e+03    20s
  23   1.40963612e+09  1.36776612e+09  1.92e-08 4.88e-04  8.69e+02    21s
  24   1.39680774e+09  1.39155409e+09  1.94e-08 2.44e-04  1.09e+02    22s
  25   1.39489015e+09  1.39448274e+09  8.91e-10 2.44e-04  8.46e+00    23s
  26   1.39480454e+09  1.39459373e+09  6.78e-10 2.44e-04  4.38e+00    24s
  27   1.39475042e+09  1.39468936e+09  7.27e-08 4.88e-04  1.27e+00    25s
  28   1.39472513e+09  1.39470986e+09  2.43e-07 4.88e-04  3.17e-01    26s
  29   1.39471936e+09  1.39471529e+09  2.98e-06 4.88e-04  8.44e-02    27s
  30   1.39471778e+09  1.39471728e+09  2.31e-05 4.88e-04  1.06e-02    28s
  31   1.39471757e+09  1.39471751e+09  7.31e-07 2.44e-04  1.38e-03    29s
  32   1.39471755e+09  1.39471752e+09  2.16e-07 2.44e-04  6.66e-04    30s
  33   1.39471754e+09  1.39471753e+09  1.00e-07 2.44e-04  2.48e-04    31s
  34   1.39471754e+09  1.39471753e+09  6.23e-08 3.66e-04  4.13e-05    32s
  35   1.39471753e+09  1.39471753e+09  1.55e-08 2.44e-04  5.71e-06    33s
  36   1.39471753e+09  1.39471753e+09  2.79e-08 2.44e-04  8.34e-07    34s
  37   1.39471753e+09  1.39471753e+09  3.66e-06 2.44e-04  4.28e-07    35s

Barrier solved model in 37 iterations and 34.68 seconds
Optimal objective 1.39471753e+09

Crossover log...

    6733 DPushes remaining with DInf 0.0000000e+00                35s
     189 DPushes remaining with DInf 0.0000000e+00                35s
       0 DPushes remaining with DInf 0.0000000e+00                35s

    6030 PPushes remaining with PInf 1.7248357e-03                35s
       0 PPushes remaining with PInf 3.6918977e-03                36s

  Push phase complete: Pinf 3.6918977e-03, Dinf 1.7915040e+04     36s

Iteration    Objective       Primal Inf.    Dual Inf.      Time
    9811    1.3947175e+09   0.000000e+00   1.791504e+04     36s
Extra simplex iterations after uncrush: 5
   10254    1.3947175e+09   0.000000e+00   0.000000e+00     36s

Solved with barrier
Solved in 10254 iterations and 36.23 seconds
Optimal objective  1.394717534e+09

No IIS available for current model

